results/x-long/X-n129-k18.vrp_seed-31.out
28948	1136
