results/x-long/X-n129-k18.vrp_seed-31.vrp.sol
Route #1: 3
Route #2: 91 75 103 89 66 15
Route #3: 80 68 98 4 111 94 121 87
Route #4: 83 109 51 120 8 37
Route #5: 47 127 28 118 38
Route #6: 119 5 106 122 115 117 74
Route #7: 86 88 113 27 52 50 78
Route #8: 64 18 59 23 1 44 90
Route #9: 53 70 14 99 42 69 97 31 125 24
Route #10: 93 39 25 84 43 30 67
Route #11: 82 124 7 9 63 20
Route #12: 19 6 48 2 34 21 33 46 22 54
Route #13: 128 81 36 29 45
Route #14: 71 104 10 79 76 105 65 107
Route #15: 110 17 101 58 40 55 41 61 85 11 126
Route #16: 32 114 73 49 92 116 95 96 12 16
Route #17: 62 56 13 57 35 77 60
Route #18: 123 26 108 100 72 112 102
Cost 28948.000000